certificates/rado_a15_c273_N37.drat
-34 17 -37 0
-35 -36 -37 0
-17 -37 0
d -17 -19 -37 0
-37 0
17 0
-35 0
34 7 0
-25 7 0
7 0
-19 0
-25 0
31 0
0
